=obj=                                               86
C0001                                               1
C0005                                               1
C0009                                               1
C0010                                               1
C0022                                               1
C0024                                               1
C0025                                               1
C0312                                               1
C0322                                               1
C0324                                               1
C0327                                               1
C0350                                               1
C0614                                               1
C0622                                               1
C0629                                               1
C0650                                               1
C0652                                               1
C0916                                               1
C0922                                               1
C0931                                               1
C0950                                               1
C0954                                               1
C1218                                               1
C1222                                               1
C1233                                               1
C1250                                               1
C1256                                               1
C1257                                               1
C1520                                               1
C1522                                               1
C1535                                               1
C1550                                               1
C1559                                               1
C1822                                               1
C1837                                               1
C1850                                               1
C1861                                               1
C2139                                               1
C2150                                               1
C2163                                               1
C2441                                               1
C2443                                               1
C2450                                               1
C2465                                               1
C2743                                               1
C2745                                               1
C2750                                               1
C2767                                               1
C3047                                               1
C3050                                               1
C3069                                               1
C3349                                               1
C3350                                               1
C3371                                               1
C3673                                               1
C3975                                               1
C4277                                               1
C4579                                               1
C4881                                               1
C5183                                               1
C5485                                               1
C5787                                               1
C6089                                               1
C6391                                               1
C6693                                               1
C6995                                               1
C7297                                               1
C7599                                               1
C7901                                               1
C8203                               0.999999999999999
C8505                               0.999999999999999
C8807                               0.999999999999999
C9109                                               1
C9411                                               1
C9713                                               1
C10015                                              1
C10317                                              1
C10318                                              1
C10620                                              1
C10922                                              1
C11224                                              1
C11526                                              1
C11527                                              1
C11829                                              1
C12131                                              1
C12433                                              1
C12735                                              1
C13037                                              1
C13339                                              1
C13641                                              1
C13943                                              1
C14245                                              1
C14547                                              1
C14551                                              1
C14557                                              1
C14558                                              1
C14562                                              1
C14573                                              1
C14580                                              1
C14849                                              1
C14850                                              1
C14851                                              1
C14853                                              1
C14854                                              1
C14855                                              1
C14856                                              1
C14857                                              1
C14860                                              1
C14861                                              1
C14862                                              1
C14864                                              1
C14865                                              1
C14866                                              1
C14867                                              1
C14868                                              1
C14869                                              1
C14870                                              1
C14871                                              1
C14872                                              1
C14873                                              1
C14875                                              1
C14876                                              1
C14877                                              1
C14878                                              1
C14879                                              1
C14880                                              1
C14882                                              1
C14883                                              1
C14884                                              1
C14885                                              1
C14886                                              1
C14887                                              1
C14888                                              1
C14889                                              1
C14890                                              1
C14891                                              1
C14892                                              1
C14893                                              1
C14894                                              1
C14895                                              1
C14896                                              1
C14897                                              1
C14898                                              1
C14899                                              1
C14900                                              1
C14901                                              1
C14902                                              1
C14903                                              1
C14904                                              1
C14905                                              1
C14906                                              1
C14907                                              1
C14908                                              1
C14909                                              1
C14910                                              1
C14911                                              1
C14912                                              1
C14913                                              1
C14914                                              1
C14915                                              1
C14916                                              1
C14917                                              1
C14918                                              1
C14919                                              1
C14920                                              1
C14921                                              1
C14922                                              1
C14923                                              1
C14924                                              1
C14925                                              1
C14926                                              1
C14927                                              1
C14928                                              1
C14929                                              1
C14930                                              1
C14931                                              1
C14932                                              1
C14933                                              1
C14934                                              1
C14935                                              1
C14936                                              1
C14937                                              1
C14938                                              1
C14939                                              1
C14940                                              1
C14941                                              1
C14942                                              1
C14943                                              1
C14944                                              1
C14945                                              1
C14946                                              1
C14947                                              1
C14948                                              1
C14949                                              1
C14950                                              1
C14951                                              1
C14952                                              1
C14953                                              1
C14954                                              1
C14955                                              1
C14956                                              1
C14957                                              1
C14958                                              1
C14959                                              1
C14960                                              1
C14961                                              1
C14962                                              1
C14963                                              1
C14964                                              1
C14965                                              1
C14966                                              1
C14967                                              1
C14968                                              1
C14969                                              1
C14970                                              1
C14971                                              1
C14972                                              1
C14973                                              1
C14974                                              1
C14975                                              1
C14976                                              1
C14977                                              1
C14978                                              1
C14979                                              1
C14980                                              1
C14981                                              1
C14982                                              1
C14983                                              1
C14984                                              1
C14985                                              1
C14986                                              1
C14987                                              1
C14988                                              1
C14989                                              1
C14990                                              1
C14991                                              1
C14992                                              1
C14993                                              1
C14994                                              1
C14995                                              1
C14996                                              1
C14997                                              1
C14998                                              1
C14999                                              1
C15000                                              1
C15001                                              1
C15002                                              1
C15003                                              1
C15004                                              1
C15005                                              1
C15006                                              1
C15007                                              1
C15008                                              1
C15009                                              1
C15010                                              1
C15011                                              1
C15012                                              1
C15013                                              1
C15014                                              1
C15015                                              1
C15016                                              1
C15017                                              1
C15018                                              1
C15019                                              1
C15020                                              1
C15021                                              1
C15022                                              1
C15023                                              1
C15024                                              1
C15025                                              1
C15026                                              1
C15027                                              1
C15028                                              1
C15029                                              1
C15030                                              1
C15031                                              1
C15032                                              1
C15033                                              1
C15034                                              1
C15035                                              1
C15036                                              1
C15037                                              1
C15038                                              1
C15039                                              1
C15040                                              1
C15041                                              1
C15042                                              1
C15043                                              1
C15044                                              1
C15045                                              1
C15046                                              1
C15047                                              1
C15048                                              1
C15049                                              1
C15050                                              1
C15051                                              1
C15052                                              1
C15053                                              1
C15054                                              1
C15055                                              1
C15056                                              1
C15057                                              1
C15058                                              1
C15059                                              1
C19021                                              1
C19321                                              1
C19323                                              1
C19621                                              1
C19625                                              1
C19921                                              1
C19927                                              1
C20221                                              1
C20229                                              1
C20521                                              1
C20531                                              1
C20821                                              1
C20833                                              1
C21121                                              1
C21135                                              1
C21421                                              1
C21437                                              1
C21721                                              1
C21739                                              1
C22021                                              1
C22041                                              1
C22321                                              1
C22343                                              1
C22621                                              1
C22645                                              1
C22921                                              1
C22947                                              1
C23221                                              1
C23249                                              1
C23521                                              1
C23551                                              1
C23821                                              1
C23853                                              1
C24121                                              1
C24155                                              1
C24421                                              1
C24457                                              1
C24721                                              1
C24759                                              1
C25021                                              1
C25061                                              1
C25321                                              1
C25363                                              1
C25621                                              1
C25665                                              1
C25921                                              1
C25967                                              1
C26221                                              1
C26269                                              1
C26521                                              1
C26571                                              1
C26821                                              1
C26873                                              1
C27121                                              1
C27175                                              1
C27421                                              1
C27477                                              1
C27721                                              1
C27779                                              1
C28021                                              1
C28081                                              1
C28321                                              1
C28383                                              1
C28621                                              1
C28685                                              1
C28911                                              1
C28921                                              1
C28987                                              1
C29211                                              1
C29213                                              1
C29221                                              1
C29289                                              1
C29511                                              1
C29515                                              1
C29521                                              1
C29591                                              1
C29811                                              1
C29817                                              1
C29821                                              1
C29893                                              1
C30111                                              1
C30119                                              1
C30121                                              1
C30195                                              1
C30225                                              1
C30411                                              1
C30421                                              1
C30497                                              1
C30498                                              1
C30499                                              1
C30500                                              1
C30501                                              1
C30502                                              1
C30503                                              1
C30504                                              1
C30505                                              1
C30506                                              1
C30507                                              1
C30508                                              1
C30509                                              1
C30510                                              1
C30511                                              1
C30512                                              1
C30513                                              1
C30514                                              1
C30515                                              1
C30516                                              1
C30517                                              1
C30518                                              1
C30519                                              1
C30520                                              1
C30521                                              1
C30522                                              1
C30523                                              1
C30524                                              1
C30525                                              1
C30527                                              1
C30528                                              1
C30529                                              1
C30530                                              1
C30531                                              1
C30532                                              1
C30533                                              1
C30534                                              1
C30535                                              1
C30536                              0.999999999999999
C30537                                              1
C30538                                              1
C30539                                              1
C30540                                              1
C30541                                              1
C30542                                              1
C30543                                              1
C30544                                              1
C30545                                              1
C30546                                              1
C30547                                              1
C30548                                              1
C30549                                              1
C30550                                              1
C30551                                              1
C30552                                              1
C30553                                              1
C30554                                              1
C30555                                              1
C30556                                              1
C30557                                              1
C30558                                              1
C30559                                              1
C30560                                              1
C30561                                              1
C30562                                              1
C30563                                              1
C30564                                              1
C30565                                              1
C30566                                              1
C30567                                              1
C30568                                              1
C30569                                              1
C30570                                              1
C30571                                              1
C30572                                              1
C30573                                              1
C30574                                              1
C30575                                              1
C30576                                              1
C30577                                              1
C30578                                              1
C30579                                              1
C30580                                              1
C30581                                              1
C30582                                              1
C30583                                              1
C30584                                              1
C30585                                              1
C30586                                              1
C30587                                              1
C30588                                              1
C30589                                              1
C30590                                              1
C30591                                              1
C30592                                              1
C30593                                              1
C30594                                              1
C30595                                              1
C30596                                              1
C30597                                              1
C30598                                              1
C30599                                              1
C30600                                              1
C30601                                              1
C30602                                              1
C30603                                              1
C30604                                              1
C30605                                              1
C30606                                              1
C30607                                              1
C30608                                              1
C30609                                              1
C30610                                              1
C30611                                              1
C30612                                              1
C30613                                              1
C30614                                              1
C30615                                              1
C30616                                              1
C30617                                              1
C30618                                              1
C30619                                              1
C30620                                              1
C30621                                              1
C30622                                              1
C30623                                              1
C30624                                              1
C30625                                              1
C30626                                              1
C30627                                              1
C30628                                              1
C30629                                              1
C30630                                              1
C30631                                              1
C30632                                              1
C30633                                              1
C30634                                              1
C30635                                              1
C30636                                              1
C30637                                              1
C30638                                              1
C30639                                              1
C30640                                              1
C30641                                              1
C30642                                              1
C30643                                              1
C30644                                              1
C30645                                              1
C30646                                              1
C30647                                              1
C30648                                              1
C30649                                              1
C30650                                              1
C30651                                              1
C30652                                              1
C30653                                              1
C30654                                              1
C30655                                              1
C30656                                              1
C30657                                              1
C30658                                              1
C30659                                              1
C30660                                              1
C30661                                              1
C30662                                              1
C30663                                              1
C30664                                              1
C30665                                              1
C30666                                              1
C30667                                              1
C30668                                              1
C30669                                              1
C30670                                              1
C30671                                              1
C30672                                              1
C30673                                              1
C30674                                              1
C30675                                              1
C30676                                              1
C30677                                              1
C30678                                              1
C30679                                              1
C30680                                              1
C30681                                              1
C30682                                              1
C30683                                              1
C30684                                              1
C30685                                              1
C30686                                              1
C30687                                              1
C30688                                              1
C30689                                              1
C30690                                              1
C30691                                              1
C30692                                              1
C30693                                              1
C30694                                              1
C30695                                              1
C30696                                              1
C30697                                              1
C30698                                              1
C30699                                              1
C30700                                              1
C30701                                              1
C30702                                              1
C30703                                              1
C30704                                              1
C30705                                              1
C30706                                              1
C30707                                              1
C30708                                              1
C30709                                              1
C30710                                              1
C30711                                              1
C91818                                              1
C106572                                             1
C112033                                             1
C123725                                             1
C124036                                             1
C124412                                             1
